25° run output:
{
    "Function": "ClusterA500.tsp",
    "Problem dimension": [
        294,
        440,
        334,
        423,
        116,
        6,
        394,
        332,
        126,
        431,
        365,
        363,
        492,
        22,
        396,
        388,
        409,
        353,
        74,
        288,
        469,
        26,
        121,
        496,
        190,
        238,
        159,
        376,
        196,
        497,
        62,
        12,
        157,
        11,
        34,
        303,
        413,
        494,
        23,
        203,
        297,
        374,
        354,
        298,
        445,
        320,
        83,
        336,
        163,
        269,
        277,
        192,
        477,
        439,
        265,
        231,
        296,
        310,
        58,
        193,
        151,
        169,
        471,
        56,
        61,
        92,
        249,
        154,
        421,
        180,
        340,
        48,
        467,
        293,
        458,
        181,
        87,
        392,
        86,
        5,
        81,
        214,
        9,
        284,
        120,
        381,
        204,
        216,
        355,
        487,
        491,
        206,
        290,
        341,
        219,
        345,
        131,
        292,
        256,
        10,
        454,
        70,
        139,
        339,
        225,
        102,
        132,
        103,
        207,
        281,
        155,
        128,
        77,
        415,
        160,
        317,
        101,
        338,
        480,
        437,
        202,
        244,
        484,
        42,
        125,
        242,
        50,
        262,
        327,
        330,
        419,
        142,
        370,
        18,
        274,
        322,
        143,
        31,
        401,
        399,
        210,
        403,
        49,
        24,
        275,
        485,
        282,
        406,
        498,
        426,
        230,
        251,
        366,
        218,
        475,
        124,
        400,
        220,
        489,
        267,
        141,
        479,
        114,
        357,
        89,
        4,
        360,
        466,
        472,
        424,
        278,
        46,
        39,
        373,
        127,
        212,
        173,
        333,
        382,
        2,
        72,
        372,
        30,
        386,
        108,
        482,
        91,
        301,
        115,
        314,
        349,
        398,
        404,
        463,
        186,
        75,
        464,
        14,
        195,
        28,
        236,
        164,
        134,
        184,
        361,
        65,
        21,
        149,
        444,
        495,
        285,
        200,
        448,
        215,
        417,
        136,
        307,
        69,
        7,
        446,
        358,
        0,
        135,
        266,
        41,
        387,
        295,
        248,
        325,
        19,
        122,
        168,
        191,
        105,
        183,
        347,
        309,
        378,
        352,
        177,
        380,
        451,
        245,
        460,
        188,
        35,
        316,
        197,
        226,
        100,
        432,
        71,
        453,
        228,
        436,
        493,
        246,
        383,
        319,
        176,
        161,
        465,
        457,
        411,
        223,
        299,
        29,
        156,
        343,
        271,
        82,
        170,
        346,
        198,
        144,
        112,
        123,
        304,
        44,
        253,
        59,
        321,
        85,
        150,
        488,
        17,
        63,
        331,
        450,
        80,
        313,
        329,
        66,
        199,
        235,
        224,
        52,
        53,
        78,
        364,
        187,
        232,
        64,
        312,
        129,
        337,
        165,
        60,
        147,
        385,
        258,
        36,
        375,
        20,
        104,
        55,
        174,
        208,
        410,
        384,
        118,
        167,
        391,
        416,
        37,
        315,
        33,
        311,
        148,
        179,
        133,
        390,
        283,
        182,
        461,
        430,
        289,
        369,
        442,
        452,
        268,
        97,
        240,
        79,
        270,
        185,
        233,
        257,
        408,
        172,
        117,
        152,
        323,
        221,
        302,
        462,
        146,
        140,
        483,
        427,
        481,
        250,
        443,
        98,
        241,
        276,
        76,
        499,
        473,
        259,
        279,
        25,
        291,
        468,
        13,
        73,
        428,
        389,
        447,
        435,
        130,
        178,
        54,
        3,
        441,
        27,
        438,
        209,
        45,
        189,
        171,
        425,
        324,
        138,
        273,
        227,
        474,
        261,
        88,
        113,
        478,
        254,
        222,
        263,
        490,
        449,
        137,
        418,
        433,
        158,
        237,
        260,
        486,
        99,
        96,
        434,
        335,
        255,
        47,
        351,
        456,
        470,
        32,
        67,
        455,
        145,
        166,
        308,
        264,
        402,
        414,
        43,
        393,
        213,
        359,
        211,
        15,
        153,
        201,
        422,
        342,
        234,
        8,
        247,
        286,
        395,
        1,
        397,
        16,
        162,
        405,
        344,
        356,
        94,
        318,
        328,
        107,
        252,
        229,
        306,
        305,
        420,
        106,
        371,
        379,
        111,
        300,
        326,
        51,
        368,
        348,
        412,
        476,
        68,
        109,
        175,
        367,
        272,
        119,
        377,
        110,
        350,
        243,
        239,
        57,
        95,
        205,
        459,
        287,
        40,
        90,
        429,
        362,
        84,
        194,
        280,
        217,
        93,
        407,
        38
    ],
    "Global Optimum": 0,
    "Algorithm": "Genetic algorithm",
    "Parameters": {
        "population": 30,
        "offspring": 30,
        "mutation probability": 0.002,
        "crossover probability": 0.9
    },
    "Fitness": 619130,
    "Solution": [
        294,
        440,
        334,
        423,
        116,
        6,
        394,
        332,
        126,
        431,
        365,
        363,
        492,
        22,
        396,
        388,
        409,
        353,
        74,
        288,
        469,
        26,
        121,
        496,
        190,
        238,
        159,
        376,
        196,
        497,
        62,
        12,
        157,
        11,
        34,
        303,
        413,
        494,
        23,
        203,
        297,
        374,
        354,
        298,
        445,
        320,
        83,
        336,
        163,
        269,
        277,
        192,
        477,
        439,
        265,
        231,
        296,
        310,
        58,
        193,
        151,
        169,
        471,
        56,
        61,
        92,
        249,
        154,
        421,
        180,
        340,
        48,
        467,
        293,
        458,
        181,
        87,
        392,
        86,
        5,
        81,
        214,
        9,
        284,
        120,
        381,
        204,
        216,
        355,
        487,
        491,
        206,
        290,
        341,
        219,
        345,
        131,
        292,
        256,
        10,
        454,
        70,
        139,
        339,
        225,
        102,
        132,
        103,
        207,
        281,
        155,
        128,
        77,
        415,
        160,
        317,
        101,
        338,
        480,
        437,
        202,
        244,
        484,
        42,
        125,
        242,
        50,
        262,
        327,
        330,
        419,
        142,
        370,
        18,
        274,
        322,
        143,
        31,
        401,
        399,
        210,
        403,
        49,
        24,
        275,
        485,
        282,
        406,
        498,
        426,
        230,
        251,
        366,
        218,
        475,
        124,
        400,
        220,
        489,
        267,
        141,
        479,
        114,
        357,
        89,
        4,
        360,
        466,
        472,
        424,
        278,
        46,
        39,
        373,
        127,
        212,
        173,
        333,
        382,
        2,
        72,
        372,
        30,
        386,
        108,
        482,
        91,
        301,
        115,
        314,
        349,
        398,
        404,
        463,
        186,
        75,
        464,
        14,
        195,
        28,
        236,
        164,
        134,
        184,
        361,
        65,
        21,
        149,
        444,
        495,
        285,
        200,
        448,
        215,
        417,
        136,
        307,
        69,
        7,
        446,
        358,
        0,
        135,
        266,
        41,
        387,
        295,
        248,
        325,
        19,
        122,
        168,
        191,
        105,
        183,
        347,
        309,
        378,
        352,
        177,
        380,
        451,
        245,
        460,
        188,
        35,
        316,
        197,
        226,
        100,
        432,
        71,
        453,
        228,
        436,
        493,
        246,
        383,
        319,
        176,
        161,
        465,
        457,
        411,
        223,
        299,
        29,
        156,
        343,
        271,
        82,
        170,
        346,
        198,
        144,
        112,
        123,
        304,
        44,
        253,
        59,
        321,
        85,
        150,
        488,
        17,
        63,
        331,
        450,
        80,
        313,
        329,
        66,
        199,
        235,
        224,
        52,
        53,
        78,
        364,
        187,
        232,
        64,
        312,
        129,
        337,
        165,
        60,
        147,
        385,
        258,
        36,
        375,
        20,
        104,
        55,
        174,
        208,
        410,
        384,
        118,
        167,
        391,
        416,
        37,
        315,
        33,
        311,
        148,
        179,
        133,
        390,
        283,
        182,
        461,
        430,
        289,
        369,
        442,
        452,
        268,
        97,
        240,
        79,
        270,
        185,
        233,
        257,
        408,
        172,
        117,
        152,
        323,
        221,
        302,
        462,
        146,
        140,
        483,
        427,
        481,
        250,
        443,
        98,
        241,
        276,
        76,
        499,
        473,
        259,
        279,
        25,
        291,
        468,
        13,
        73,
        428,
        389,
        447,
        435,
        130,
        178,
        54,
        3,
        441,
        27,
        438,
        209,
        45,
        189,
        171,
        425,
        324,
        138,
        273,
        227,
        474,
        261,
        88,
        113,
        478,
        254,
        222,
        263,
        490,
        449,
        137,
        418,
        433,
        158,
        237,
        260,
        486,
        99,
        96,
        434,
        335,
        255,
        47,
        351,
        456,
        470,
        32,
        67,
        455,
        145,
        166,
        308,
        264,
        402,
        414,
        43,
        393,
        213,
        359,
        211,
        15,
        153,
        201,
        422,
        342,
        234,
        8,
        247,
        286,
        395,
        1,
        397,
        16,
        162,
        405,
        344,
        356,
        94,
        318,
        328,
        107,
        252,
        229,
        306,
        305,
        420,
        106,
        371,
        379,
        111,
        300,
        326,
        51,
        368,
        348,
        412,
        476,
        68,
        109,
        175,
        367,
        272,
        119,
        377,
        110,
        350,
        243,
        239,
        57,
        95,
        205,
        459,
        287,
        40,
        90,
        429,
        362,
        84,
        194,
        280,
        217,
        93,
        407,
        38
    ],
    "Nb of functions evaluations": 200010,
    "Computational time in seconds": 932.3148436546326,
    "Stopping criterion in evaluations": 200000
}